&CONTROL
  calculation = 'scf'
  etot_conv_thr =   2.0000000000d-05
  forc_conv_thr =   1.0000000000d-04
  outdir = './out/'
  prefix = 'Si'
  pseudo_dir = '/work/p/popoola/ANN/PseudoSSP'
  tprnfor = .true.
  tstress = .true.
  verbosity = 'low'
 /
&SYSTEM
  degauss =   1.4699723600d-02
  ecutrho =   2.4000000000d+02
  ecutwfc =   3.0000000000d+01
  ibrav = 0
  nat = 2
  ntyp = 1
  occupations = 'smearing'
  smearing = 'cold'
  nosym = .true.
/
&ELECTRONS
  conv_thr =   4.0000000000d-10
  electron_maxstep = 80
  mixing_beta =   4.0000000000d-01
/
ATOMIC_SPECIES
Si     28.0855   Si.upf
K_POINTS automatic
4 4 4  0 0 0
CELL_PARAMETERS angstrom
2.715   2.715    0.0
2.715   0        2.715
0       2.715    2.715
