&CONTROL
  calculation = 'md'
  etot_conv_thr =   2.0000000000d-05
  forc_conv_thr =   1.0000000000d-04
  outdir = './out/'
  prefix = 'Si'
  pseudo_dir = '/work/p/popoola/ANN/PseudoSSP'
  tprnfor = .true.
!  tstress = .true.
  verbosity = 'low'
  dt = 10
  nstep = 5000 
  disk_io = 'none'
/
&SYSTEM
  degauss =   1.4699723600d-02
  ecutrho =   2.4000000000d+02
  ecutwfc =   3.0000000000d+01
  ibrav = 0
  nat = 2
  ntyp = 1
  occupations = 'smearing'
  smearing = 'cold'
  nosym = .true.
/
&ELECTRONS
  conv_thr =   4.0000000000d-10
  electron_maxstep = 80
  mixing_beta =   4.0000000000d-01
/
&IONS
tempw = 100.0
!ion_temperature = 'berendsen'
!ion_temperature = 'initial'

/
&CELL
/
ATOMIC_SPECIES
Si     28.0855   Si.upf
ATOMIC_POSITIONS angstrom
Si  0.10    0.20    0.30
Si  1.437   1.637   1.537
K_POINTS automatic
4 4 4  0 0 0
CELL_PARAMETERS angstrom
2.715   2.715    0.0
2.715   0        2.715
0       2.715    2.715